c   #vars: 69   #clauses: 327   #literals: 928
c 
p cnf 69 327
23 24 65 66 0
5 6 53 54 0
28 29 50 51 0
-1 44 53 54 0
2 28 29 -33 0
-3 -4 0
-5 -6 0
-7 -8 0
-9 -10 0
-11 -12 0
-13 -14 0
-15 -16 0
-17 -18 0
-19 -20 0
-21 -22 0
-23 -24 0
17 18 37 -48 0
-26 -27 0
37 -48 65 66 0
-28 -29 0
3 4 -17 37 0
-31 -32 0
-33 -34 0
-35 -36 0
-38 -39 0
15 16 31 32 0
40 41 46 47 0
-40 -41 0
-42 -43 0
1 -26 -39 60 0
7 8 45 -65 0
5 6 -42 52 0
45 -63 65 66 0
9 10 33 34 0
-46 -47 0
19 20 31 32 0
15 16 26 27 0
11 12 65 66 0
-48 -49 0
-50 -51 0
-25 33 34 55 0
-53 -54 0
-1 26 27 60 0
15 16 -19 67 0
7 8 68 69 0
-56 -57 0
-58 -59 0
-61 -62 0
-63 -64 0
28 29 56 57 0
-65 -66 0
1 44 -53 -60 0
1 -9 -44 60 0
5 6 68 69 0
-68 -69 0
-1 -38 0
28 29 48 49 0
7 8 45 -63 0
7 8 53 54 0
15 16 48 49 0
2 33 34 -65 0
2 -28 65 66 0
21 22 48 49 0
-9 27 60 0
13 14 44 -53 0
-2 -29 0
30 48 49 -53 0
-1 13 14 44 0
-2 -34 0
23 24 28 29 0
31 32 53 54 0
2 -28 33 34 0
-2 -66 0
-17 37 48 49 0
-15 19 20 67 0
9 10 65 66 0
-17 19 20 67 0
-5 42 43 52 0
-3 -28 0
-4 -29 0
31 32 56 57 0
-4 -37 0
30 -48 50 51 0
-3 -38 0
-4 -39 0
30 -48 53 54 0
-3 -58 0
-4 -59 0
38 39 46 47 0
-5 -38 0
-6 -39 0
23 24 63 64 0
-5 -40 0
-6 -41 0
-5 -46 0
-6 -47 0
19 20 53 54 0
-8 33 34 55 0
-6 -52 0
-1 9 10 60 0
-5 -53 0
-6 -54 0
5 6 46 47 0
-5 -68 0
-6 -69 0
17 18 37 -65 0
-7 -31 0
-8 -32 0
13 14 63 64 0
30 -50 53 54 0
5 6 -35 52 0
-8 -45 0
13 14 56 57 0
-7 -53 0
-8 -54 0
11 12 33 34 0
-7 -55 0
15 16 -17 67 0
17 18 61 62 0
-7 -58 0
-8 -59 0
5 6 38 39 0
-7 -68 0
-8 -69 0
-9 -26 0
-10 -27 0
11 12 28 29 0
-9 -33 0
-10 -34 0
-9 -35 0
-10 -36 0
-17 37 65 66 0
-10 -60 0
-8 -13 25 55 0
-9 -65 0
-10 -66 0
1 -13 -39 44 0
-11 -28 0
-12 -29 0
1 -26 -44 60 0
-11 -33 0
-12 -34 0
-11 -40 0
-12 -41 0
10 -26 60 0
-7 45 65 66 0
-11 -65 0
-12 -66 0
-3 17 18 37 0
-14 -25 0
23 24 31 32 0
-13 -38 0
-14 -39 0
42 43 68 69 0
-13 -40 0
-14 -41 0
31 32 48 49 0
45 63 64 -65 0
-14 -44 0
7 8 58 59 0
-13 -56 0
-14 -57 0
-13 -61 0
-14 -62 0
-13 -63 0
-14 -64 0
5 6 40 41 0
-15 -26 0
-16 -27 0
-15 -31 0
-16 -32 0
-15 -42 0
-16 -43 0
19 20 26 27 0
-13 44 53 54 0
42 43 56 57 0
-15 -48 0
-16 -49 0
21 22 68 69 0
-15 -63 0
-16 -64 0
2 -33 65 66 0
1 -9 -39 60 0
-16 -67 0
-17 -26 0
-18 -27 0
-17 -33 0
-18 -34 0
13 14 25 -55 0
-18 -37 0
3 4 28 29 0
-17 -61 0
-18 -62 0
11 12 40 41 0
1 38 39 -60 0
-18 -67 0
40 41 61 62 0
-19 -26 0
-20 -27 0
-19 -31 0
-20 -32 0
42 43 46 47 0
-19 -40 0
-20 -41 0
17 18 33 34 0
33 34 58 59 0
-19 -53 0
-20 -54 0
1 38 39 -44 0
-20 -67 0
-13 25 -34 55 0
-19 -68 0
-20 -69 0
37 48 49 -65 0
-21 -48 0
-22 -49 0
13 14 25 -65 0
-21 -50 0
-22 -51 0
28 29 61 62 0
-21 -58 0
-22 -59 0
15 16 42 43 0
-21 -68 0
-22 -69 0
-23 -28 0
-24 -29 0
26 27 50 51 0
-23 -31 0
-24 -32 0
17 18 26 27 0
-23 -56 0
-24 -57 0
30 50 51 -53 0
-23 -63 0
-24 -64 0
9 10 26 27 0
-23 -65 0
-24 -66 0
30 48 49 -50 0
3 4 37 -65 0
17 18 -19 67 0
3 4 37 -48 0
-25 -66 0
35 36 58 59 0
-26 -50 0
-27 -51 0
9 10 35 36 0
25 -55 65 66 0
-27 -60 0
-3 37 65 66 0
23 24 56 57 0
-28 -48 0
-29 -49 0
21 22 58 59 0
-28 -50 0
-29 -51 0
1 -39 44 -53 0
-28 -56 0
-29 -57 0
25 -34 55 -65 0
-28 -61 0
-29 -62 0
-8 25 55 -65 0
-13 25 65 66 0
-30 -49 0
15 16 63 64 0
-30 -51 0
-30 -54 0
21 22 50 51 0
-31 -46 0
-32 -47 0
35 36 56 57 0
-31 -48 0
-32 -49 0
-31 -53 0
-32 -54 0
-35 42 43 52 0
-31 -56 0
-32 -57 0
3 4 58 59 0
-33 -50 0
-34 -51 0
19 20 68 69 0
-33 -55 0
-15 17 18 67 0
-33 -58 0
-34 -59 0
31 32 46 47 0
7 8 -34 55 0
-36 -52 0
-35 -56 0
-36 -57 0
-35 -58 0
-36 -59 0
-37 -49 0
3 4 38 39 0
-37 -66 0
-38 -46 0
-39 -47 0
13 14 40 41 0
-40 -46 0
-41 -47 0
2 28 29 -65 0
-40 -61 0
-41 -62 0
7 8 31 32 0
-42 -46 0
-43 -47 0
13 14 38 39 0
7 8 -25 55 0
-43 -52 0
-42 -56 0
-43 -57 0
-3 37 48 49 0
-42 -68 0
-43 -69 0
33 34 50 51 0
13 14 61 62 0
-7 45 63 64 0
-44 -54 0
1 -13 44 -60 0
35 36 -42 52 0
-45 -64 0
-5 35 36 52 0
-45 -66 0
19 20 40 41 0
